c SAT Generator for power-law distributed variable frequencies
c -g u -v 20 -c 91 -k 3 -p 2.750000 -b 3.200000 -f /home/schmidt/Devel/ni-kop-sat/data/ensemble/ruf20-91/ruf20-91-560 -u 1 -U 1 -s 2266034817
p cnf 20 91
-2 -7 -11 0
-1 -9 18 0
11 16 -19 0
-4 5 18 0
1 4 20 0
6 -9 15 0
-4 -10 16 0
7 -15 -19 0
4 -12 -16 0
-7 -10 19 0
8 -15 18 0
-7 -10 -12 0
7 17 -18 0
-1 6 13 0
-6 -8 -9 0
-7 -10 11 0
-1 -12 13 0
5 -10 19 0
-11 -17 -20 0
1 3 4 0
-1 -13 15 0
9 13 18 0
5 11 -18 0
-5 -7 -15 0
6 10 -20 0
-4 14 -18 0
-1 8 12 0
2 7 15 0
9 14 -19 0
2 -9 -18 0
-13 -18 -19 0
-7 -9 -10 0
3 -19 20 0
-1 -13 -20 0
5 16 -20 0
-4 -15 -17 0
-1 -11 -15 0
9 11 16 0
-8 12 -15 0
-14 -15 -20 0
1 8 12 0
-10 -11 13 0
-11 12 18 0
8 13 16 0
4 11 16 0
4 -14 15 0
10 11 17 0
12 16 -17 0
3 4 8 0
7 8 9 0
1 2 13 0
1 5 -18 0
9 12 -17 0
6 -8 13 0
-9 -14 16 0
4 -10 18 0
-1 -2 18 0
-3 -4 -9 0
-4 -6 -19 0
2 6 -13 0
2 -11 -17 0
-2 -8 18 0
11 14 -18 0
-6 -7 -13 0
-15 17 -18 0
1 3 -10 0
3 -12 -16 0
-4 7 15 0
5 -17 -19 0
-2 14 18 0
-6 -18 19 0
-2 -11 -18 0
-5 -13 -17 0
16 18 20 0
5 7 -20 0
-10 16 -19 0
-1 -9 16 0
1 -6 -12 0
10 11 -12 0
-7 8 9 0
-4 -15 16 0
-7 -13 -20 0
-1 -2 12 0
4 -6 -7 0
-3 9 15 0
15 19 20 0
9 16 -17 0
-3 10 -18 0
-9 -16 20 0
3 -4 8 0
-1 -12 -20 0
